
Gurobi 9.5.1 (mac64[x86]) logging started Sat Jun 11 18:40:39 2022

Set parameter LogFile to value "/Users/keyvanmajd/Documents/GitHub/NNRepLayer_v2/demos/walking_example/flow_constraint/repair_net/logs/opt_log_6_11_2022_18_40_2.log"
Gurobi Optimizer version 9.5.1 build v9.5.1rc2 (mac64[x86])
Thread count: 4 physical cores, 8 logical processors, using up to 8 threads
Optimize a model with 21978 rows, 13454 columns and 61178 nonzeros
Model fingerprint: 0x84a3dca0
Model has 78 quadratic objective terms
Variable types: 6062 continuous, 7392 integer (7392 binary)
Coefficient statistics:
  Matrix range     [6e-03, 5e+01]
  Objective range  [3e-01, 1e+00]
  QObjective range [3e-01, 2e+00]
  Bounds range     [1e-01, 5e+01]
  RHS range        [2e-04, 5e+01]
Presolve removed 19371 rows and 11076 columns
Presolve time: 0.08s
Presolved: 2607 rows, 2378 columns, 13649 nonzeros
Presolved model has 78 quadratic objective terms
Variable types: 1688 continuous, 690 integer (690 binary)
Found heuristic solution: objective 12.8919540
Root relaxation presolve removed 683 rows and 683 columns
Root relaxation presolved: 1924 rows, 1695 columns, 12283 nonzeros
Root relaxation presolved model has 78 quadratic objective terms

Extra simplex iterations after uncrush: 3

Root relaxation: objective 4.574422e+00, 7088 iterations, 0.21 seconds (0.33 work units)

    Nodes    |    Current Node    |     Objective Bounds      |     Work
 Expl Unexpl |  Obj  Depth IntInf | Incumbent    BestBd   Gap | It/Node Time

     0     0    4.57442    0  343   12.89195    4.57442  64.5%     -    0s
H    0     0                      12.7856299    4.57442  64.2%     -    0s
     0     0    4.58609    0  424   12.78563    4.58609  64.1%     -    1s
     0     0    4.58640    0  422   12.78563    4.58640  64.1%     -    1s
     0     0    4.61167    0  406   12.78563    4.61167  63.9%     -    2s
     0     0    4.61344    0  408   12.78563    4.61344  63.9%     -    2s
H    0     0                      12.7838475    4.63194  63.8%     -    3s
     0     0    4.63194    0  412   12.78385    4.63194  63.8%     -    3s
     0     0    4.67219    0  408   12.78385    4.67219  63.5%     -    4s
     0     0    4.67378    0  412   12.78385    4.67378  63.4%     -    5s
H    0     0                      12.7623681    4.67378  63.4%     -    5s
     0     0    4.68508    0  431   12.76237    4.68508  63.3%     -    5s
H    0     0                      12.7108245    4.68900  63.1%     -    6s
     0     0    4.68900    0  417   12.71082    4.68900  63.1%     -    6s
     0     0    4.68995    0  440   12.71082    4.68995  63.1%     -    6s
     0     0    4.72259    0  421   12.71082    4.72259  62.8%     -    7s
H    0     0                      12.6929068    4.72259  62.8%     -    7s
     0     0    4.72819    0  425   12.69291    4.72819  62.7%     -    8s
     0     0    4.75989    0  436   12.69291    4.75989  62.5%     -    9s
     0     0    4.76947    0  437   12.69291    4.76947  62.4%     -    9s
     0     0    4.77181    0  434   12.69291    4.77181  62.4%     -    9s
     0     0    4.77224    0  446   12.69291    4.77224  62.4%     -    9s
     0     0    4.77227    0  442   12.69291    4.77227  62.4%     -    9s
     0     0    4.78478    0  429   12.69291    4.78478  62.3%     -   10s
H    0     0                      12.6890310    4.78478  62.3%     -   10s
     0     0    4.78731    0  438   12.68903    4.78731  62.3%     -   10s
     0     0    4.78817    0  446   12.68903    4.78817  62.3%     -   10s
     0     0    4.78831    0  446   12.68903    4.78831  62.3%     -   10s
     0     0    4.78834    0  449   12.68903    4.78834  62.3%     -   10s
     0     0    4.80634    0  457   12.68903    4.80634  62.1%     -   11s
     0     0    4.81076    0  455   12.68903    4.81076  62.1%     -   12s
     0     0    4.81179    0  457   12.68903    4.81179  62.1%     -   12s
     0     0    4.81216    0  465   12.68903    4.81216  62.1%     -   12s
     0     0    4.81240    0  461   12.68903    4.81240  62.1%     -   12s
     0     0    4.81244    0  464   12.68903    4.81244  62.1%     -   12s
     0     0    4.82814    0  442   12.68903    4.82814  62.0%     -   13s
H    0     0                      12.1510440    4.82814  60.3%     -   13s
     0     0    4.83111    0  447   12.15104    4.83111  60.2%     -   13s
     0     0    4.83228    0  450   12.15104    4.83228  60.2%     -   13s
     0     0    4.83268    0  452   12.15104    4.83268  60.2%     -   14s
     0     0    4.83279    0  455   12.15104    4.83279  60.2%     -   14s
     0     0    4.83913    0  432   12.15104    4.83913  60.2%     -   15s
     0     0    4.84193    0  459   12.15104    4.84193  60.2%     -   15s
     0     0    4.84308    0  457   12.15104    4.84308  60.1%     -   15s
     0     0    4.84391    0  457   12.15104    4.84391  60.1%     -   15s
     0     0    4.84422    0  453   12.15104    4.84422  60.1%     -   15s
     0     0    4.84432    0  456   12.15104    4.84432  60.1%     -   15s
     0     0    4.85001    0  455   12.15104    4.85001  60.1%     -   16s
     0     0    4.85140    0  461   12.15104    4.85140  60.1%     -   16s
     0     0    4.85230    0  459   12.15104    4.85230  60.1%     -   17s
     0     0    4.85238    0  467   12.15104    4.85238  60.1%     -   17s
     0     0    4.86621    0  445   12.15104    4.86621  60.0%     -   18s
     0     0    4.86887    0  458   12.15104    4.86887  59.9%     -   18s
     0     0    4.87014    0  467   12.15104    4.87014  59.9%     -   18s
     0     0    4.87124    0  470   12.15104    4.87124  59.9%     -   18s
     0     0    4.87150    0  469   12.15104    4.87150  59.9%     -   18s
     0     0    4.87158    0  469   12.15104    4.87158  59.9%     -   18s
     0     0    4.87641    0  463   12.15104    4.87641  59.9%     -   19s
     0     0    4.87808    0  475   12.15104    4.87808  59.9%     -   19s
     0     0    4.87852    0  477   12.15104    4.87852  59.9%     -   19s
     0     0    4.87893    0  471   12.15104    4.87893  59.8%     -   20s
     0     0    4.87897    0  482   12.15104    4.87897  59.8%     -   20s
     0     0    4.88189    0  471   12.15104    4.88189  59.8%     -   21s
     0     0    4.88361    0  481   12.15104    4.88361  59.8%     -   21s
     0     0    4.88395    0  485   12.15104    4.88395  59.8%     -   21s
     0     0    4.88461    0  482   12.15104    4.88461  59.8%     -   21s
     0     0    4.88504    0  478   12.15104    4.88504  59.8%     -   21s
     0     0    4.88520    0  485   12.15104    4.88520  59.8%     -   21s
     0     0    4.88821    0  480   12.15104    4.88821  59.8%     -   22s
H    0     0                      12.1228017    4.88821  59.7%     -   22s
     0     0    4.88890    0  475   12.12280    4.88890  59.7%     -   23s
     0     0    4.88916    0  480   12.12280    4.88916  59.7%     -   23s
     0     0    4.88925    0  485   12.12280    4.88925  59.7%     -   23s
     0     0    4.89107    0  483   12.12280    4.89107  59.7%     -   23s
     0     0    4.89151    0  477   12.12280    4.89151  59.7%     -   24s
     0     0    4.89161    0  481   12.12280    4.89161  59.6%     -   24s
     0     0    4.89549    0  478   12.12280    4.89549  59.6%     -   24s
H    0     0                      11.8563513    4.89549  58.7%     -   25s
     0     0    4.89710    0  473   11.85635    4.89710  58.7%     -   25s
     0     0    4.89766    0  480   11.85635    4.89766  58.7%     -   25s
     0     0    4.89793    0  488   11.85635    4.89793  58.7%     -   25s
     0     0    4.89804    0  485   11.85635    4.89804  58.7%     -   25s
     0     0    4.90147    0  477   11.85635    4.90147  58.7%     -   26s
     0     0    4.90228    0  483   11.85635    4.90228  58.7%     -   26s
     0     0    4.90374    0  480   11.85635    4.90374  58.6%     -   27s
     0     0    4.90458    0  475   11.85635    4.90458  58.6%     -   27s
     0     0    4.90473    0  481   11.85635    4.90473  58.6%     -   27s
     0     0    4.90867    0  479   11.85635    4.90867  58.6%     -   28s
     0     0    4.90911    0  484   11.85635    4.90911  58.6%     -   29s
     0     0    4.90924    0  486   11.85635    4.90924  58.6%     -   29s
     0     0    4.91002    0  483   11.85635    4.91002  58.6%     -   30s
     0     2    4.91024    0  483   11.85635    4.91024  58.6%     -   33s
     3     8    5.49423    2  464   11.85635    4.91867  58.5%  6977   36s
    11    16    5.71152    3  480   11.85635    4.93996  58.3%  7484   40s
    43    48    6.65680    8  424   11.85635    5.07716  57.2%  3908   45s
H   63    67                      11.5988624    5.07716  56.2%  3135   47s
    88    91    6.38899   15  414   11.59886    5.07716  56.2%  2539   50s
H   95   105                      11.5648115    5.07716  56.1%  2391   50s
H  106   105                      11.3478523    5.07716  55.3%  2184   50s
H  142   147                      11.3462056    5.07716  55.3%  1772   52s
H  148   147                      11.3300890    5.07716  55.2%  1723   52s
H  151   147                      11.3299445    5.07716  55.2%  1699   52s
H  191   189                      11.0530106    5.07716  54.1%  1412   54s
H  201   189                       8.7819879    5.07716  42.2%  1360   54s
   212   223    6.83809   34  365    8.78199    5.07716  42.2%  1305   55s
H  250   236                       8.5851648    5.07716  40.9%  1139   56s
H  303   300                       8.5572158    5.07716  40.7%   988   57s
H  306   300                       8.4023494    5.07716  39.6%   981   57s
H  322   300                       8.0844584    5.07716  37.2%   938   57s
   453   423    7.45624   72  303    8.08446    5.07716  37.2%   707   60s
H  513   423                       7.7472121    5.07716  34.5%   636   60s
H  935   623                       7.1359599    5.14057  28.0%   380   65s
H 1077   538                       6.7920693    5.14057  24.3%   334   68s
H 1082   533                       6.7488107    5.14057  23.8%   333   68s
H 1085   531                       6.7277435    5.14057  23.6%   336   68s
  1118   562    5.50460   11  415    6.72774    5.14057  23.6%   335   71s
H 1141   562                       6.7277435    5.14057  23.6%   331   71s
  1237   643    5.95841   15  418    6.72774    5.14057  23.6%   320   75s
H 1240   593                       6.7086434    5.14057  23.4%   321   75s
H 1273   602                       6.7086433    5.14057  23.4%   326   83s
  1277   605    6.41911  131  479    6.70864    5.14057  23.4%   325   85s
  1285   610    6.65765  123  512    6.70864    5.14057  23.4%   323   91s
  1291   614    6.50541  193  525    6.70864    5.14057  23.4%   321   95s
H 1295   585                       6.7086224    5.14057  23.4%   320   98s
  1299   588    6.67849  276  520    6.70862    5.14057  23.4%   319  100s
H 1303   560                       6.7086224    5.14057  23.4%   318  104s
  1305   562    5.61803    8  534    6.70862    5.14057  23.4%   318  105s
  1312   566    6.55805   29  526    6.70862    5.14057  23.4%   316  110s
  1320   572    5.23334    6  520    6.70862    5.16352  23.0%   314  115s
  1326   576    5.80750   22  522    6.70862    5.17807  22.8%   313  120s
H 1326   549                       6.7086224    5.17807  22.8%   417  121s
  1327   550    5.32030   15  512    6.70862    5.17955  22.8%   421  127s
  1329   554    5.36454   16  521    6.70862    5.18406  22.7%   423  136s
  1333   558    5.43687   17  524    6.70862    5.28916  21.2%   438  140s
  1349   569    5.58524   19  495    6.70862    5.34589  20.3%   495  147s
  1357   574    5.74194   19  502    6.70862    5.34589  20.3%   514  151s
H 1359   545                       6.7086223    5.34589  20.3%   515  151s
  1373   555    5.61277   20  499    6.70862    5.34589  20.3%   529  157s

Cutting planes:
  Gomory: 57
  Cover: 28
  Implied bound: 143
  Projected implied bound: 2
  Clique: 65
  MIR: 1927
  StrongCG: 111
  Flow cover: 2925
  Zero half: 6
  RLT: 2
  Relax-and-lift: 250

Explored 1380 nodes (895607 simplex iterations) in 157.62 seconds (243.45 work units)
Thread count was 8 (of 8 available processors)

Solution count 10: 6.70862 6.70862 6.70864 ... 7.74721

Solve interrupted
Best objective 6.708622349706e+00, best bound 5.345885572774e+00, gap 20.3132%
